
Welcome to IBM(R) ILOG(R) CPLEX(R) Interactive Optimizer 22.1.1.0
  with Simplex, Mixed Integer & Barrier Optimizers
5725-A06 5725-A29 5724-Y48 5724-Y49 5724-Y54 5724-Y55 5655-Y21
Copyright IBM Corp. 1988, 2022.  All Rights Reserved.

Type 'help' for a list of available commands.
Type 'help' followed by a command name for more
information on commands.

CPLEX> Selected objective sense:  MINIMIZE
Selected objective  name:  00000000
Selected RHS        name:  RHS1
Selected bound      name:  BOUND
Problem 'ee.mps' read.
Read time = 0.03 sec. (3.14 ticks)
CPLEX> New value for time limit in seconds: 7200
CPLEX> New value for parallel optimization mode: -1
CPLEX> New value for default parallel thread count: 40
CPLEX> New value for mixed integer optimality gap tolerance: 1e-13
CPLEX> Version identifier: 22.1.1.0 | 2022-11-28 | 9160aff4d
CPXPARAM_Threads                                 40
CPXPARAM_Parallel                                -1
CPXPARAM_TimeLimit                               7200
CPXPARAM_MIP_Tolerances_MIPGap                   1e-13
Found incumbent of value 0.000000 after 0.00 sec. (0.31 ticks)
Tried aggregator 2 times.
MIP Presolve eliminated 180 rows and 2745 columns.
MIP Presolve modified 5862 coefficients.
Aggregator did 713 substitutions.
Reduced MIP has 3624 rows, 7739 columns, and 28645 nonzeros.
Reduced MIP has 7739 binaries, 0 generals, 0 SOSs, and 0 indicators.
Presolve time = 0.07 sec. (68.56 ticks)
Probing time = 0.03 sec. (6.06 ticks)
Tried aggregator 1 time.
Detecting symmetries...
Reduced MIP has 3624 rows, 7739 columns, and 28645 nonzeros.
Reduced MIP has 7739 binaries, 0 generals, 0 SOSs, and 0 indicators.
Presolve time = 0.02 sec. (21.83 ticks)
Probing time = 0.02 sec. (5.87 ticks)
Clique table members: 18552.
MIP emphasis: balance optimality and feasibility.
MIP search method: dynamic search.
Parallel mode: opportunistic, using up to 40 threads.
Root relaxation solution time = 0.12 sec. (112.27 ticks)

        Nodes                                         Cuts/
   Node  Left     Objective  IInf  Best Integer    Best Bound    ItCnt     Gap

*     0+    0                            0.0000  -1.31000e+13              --- 
*     0+    0                      -6.60000e+12  -1.31000e+13            98.48%
      0     0  -1.30900e+13    89  -6.60000e+12  -1.30900e+13     2485   98.33%
*     0+    0                      -1.30900e+13  -1.30900e+13             0.00%
      0     0  -1.30900e+13    84  -1.30900e+13      Cuts: 64     4646    0.00%
*     0+    0                      -1.30900e+13  -1.30900e+13             0.00%
      0     0  -1.30900e+13    95  -1.30900e+13      Cuts: 46     4855    0.00%
      0     0  -1.30900e+13   141  -1.30900e+13      Cuts: 32     4998    0.00%
      0    12        cutoff        -1.30900e+13  -1.30900e+13     7459    0.00%
Elapsed time = 2.59 sec. (1545.29 ticks, tree = 0.02 MB, solutions = 4)
    533   100  -1.30900e+13    45  -1.30900e+13  -1.30900e+13    28245    0.00%
   2148   258        cutoff        -1.30900e+13  -1.30900e+13    46669    0.00%
   3174   309  -1.30900e+13    33  -1.30900e+13  -1.30900e+13    58587    0.00%
   4060   604  -1.30900e+13   156  -1.30900e+13  -1.30900e+13   103568    0.00%
   4602   958  -1.30900e+13   163  -1.30900e+13  -1.30900e+13   173538    0.00%
   5195  1062        cutoff        -1.30900e+13  -1.30900e+13   196981    0.00%
   5899  1269  -1.30900e+13   185  -1.30900e+13  -1.30900e+13   236907    0.00%
   6644  1233  -1.30900e+13    37  -1.30900e+13  -1.30900e+13   230760    0.00%
   7425  1565  -1.30900e+13   141  -1.30900e+13  -1.30900e+13   288358    0.00%
  10438  1297  -1.30900e+13    63  -1.30900e+13  -1.30900e+13   395533    0.00%
Elapsed time = 7.96 sec. (4647.40 ticks, tree = 15.71 MB, solutions = 13)
  12688  1264        cutoff        -1.30900e+13  -1.30900e+13   646988    0.00%

Performing restart 1

Repeating presolve.
Tried aggregator 3 times.
MIP Presolve eliminated 1132 rows and 2808 columns.
MIP Presolve added 74 rows and 0 columns.
MIP Presolve modified 2232 coefficients.
Aggregator did 368 substitutions.
Reduced MIP has 2145 rows, 4543 columns, and 16138 nonzeros.
Reduced MIP has 4543 binaries, 0 generals, 0 SOSs, and 0 indicators.
Presolve time = 0.08 sec. (67.30 ticks)
Tried aggregator 2 times.
MIP Presolve eliminated 17 rows and 21 columns.
MIP Presolve added 4 rows and 0 columns.
Aggregator did 1 substitutions.
Reduced MIP has 2131 rows, 4517 columns, and 16047 nonzeros.
Reduced MIP has 4517 binaries, 0 generals, 0 SOSs, and 0 indicators.
Presolve time = 0.03 sec. (24.82 ticks)
Represolve time = 0.19 sec. (126.92 ticks)
  13491     0  -1.30900e+13   142  -1.30900e+13      Cuts: 15   765217    0.00%
  13491     0  -1.30900e+13   160  -1.30900e+13   ZeroHalf: 8   765248    0.00%
  13491     0  -1.30900e+13   227  -1.30900e+13       Cuts: 8   765348    0.00%
  13491     0  -1.30900e+13   155  -1.30900e+13      Cuts: 36   765575    0.00%
  13491     0  -1.30900e+13   224  -1.30900e+13      Cuts: 22   765733    0.00%
  13491     0  -1.30900e+13   246  -1.30900e+13      Cuts: 40   765863    0.00%
  13491     0  -1.30900e+13   289  -1.30900e+13      Cuts: 28   766015    0.00%
  13491     0  -1.30900e+13   256  -1.30900e+13      Cuts: 17   766193    0.00%
  13491     0  -1.30900e+13   289  -1.30900e+13      Cuts: 23   766294    0.00%
  13491     0  -1.30900e+13   305  -1.30900e+13      Cuts: 27   766378    0.00%
  13491     0  -1.30900e+13   380  -1.30900e+13      Cuts: 26   766515    0.00%
  13491     0  -1.30900e+13   381  -1.30900e+13      Cuts: 34   766716    0.00%
  13491     0  -1.30900e+13   392  -1.30900e+13      Cuts: 24   766916    0.00%

Repeating presolve.
Tried aggregator 3 times.
MIP Presolve eliminated 1631 rows and 3551 columns.
MIP Presolve added 12 rows and 0 columns.
MIP Presolve modified 118 coefficients.
Aggregator did 204 substitutions.
Reduced MIP has 307 rows, 738 columns, and 2387 nonzeros.
Reduced MIP has 738 binaries, 0 generals, 0 SOSs, and 0 indicators.
Presolve time = 0.01 sec. (10.90 ticks)
Tried aggregator 1 time.
MIP Presolve eliminated 3 rows and 6 columns.
Reduced MIP has 304 rows, 731 columns, and 2358 nonzeros.
Reduced MIP has 731 binaries, 0 generals, 0 SOSs, and 0 indicators.
Presolve time = 0.00 sec. (2.33 ticks)
Represolve time = 0.04 sec. (40.84 ticks)
  13491     0  -1.30900e+13   216  -1.30900e+13      Cuts: 49   768005    0.00%
  13491     0        cutoff        -1.30900e+13                 768045    0.00%

GUB cover cuts applied:  1
Clique cuts applied:  37
Cover cuts applied:  203
Flow cuts applied:  3
Mixed integer rounding cuts applied:  33
Zero-half cuts applied:  39
Gomory fractional cuts applied:  7

Root node processing (before b&c):
  Real time             =    1.60 sec. (1536.69 ticks)
Parallel b&c, 40 threads:
  Real time             =    9.46 sec. (6508.19 ticks)
  Sync time (average)   =    0.43 sec.
  Wait time (average)   =    0.00 sec.
                          ------------
Total (root+branch&cut) =   11.06 sec. (8044.88 ticks)

Solution pool: 13 solutions saved.

MIP - Integer optimal solution:  Objective = -1.3089999790e+13
Solution time =   11.19 sec.  Iterations = 768045  Nodes = 13491
Deterministic time = 8044.91 ticks  (719.21 ticks/sec)

CPLEX> Solution 'p14' written to file 'ee.sol'.
CPLEX> 